n = 42;
k = 3;
roles = [
{g, m},
{d, g},
{f, m},
{m, f},
{g, f},
{f, m},
{g, m},
{m, g},
{m, g},
{m, g},
{f, m},
{f, m},
{f, d},
{d, m},
{m, f},
{f, g},
{m, d},
{f, g},
{f, d},
{f, m},
{d, m},
{g, m},
{d, f},
{m, f},
{m, f},
{f, m},
{g, f},
{f, g},
{g, m},
{f, m},
{m, d},
{m, g},
{d, m},
{d, g},
{m, f},
{f, g},
{g, m},
{m, d},
{m, f},
{d, f},
{d, m},
{m, g}
];
num_pairs = 2;
player1 = [5, 37];
player2 = [13, 2];
